c   #vars: 41   #clauses: 173   #literals: 496
c 
p cnf 41 173
2 -30 36 37 0
-3 -4 0
-5 -6 0
-7 -8 0
-9 -10 0
-11 -12 0
-13 -14 0
-15 -16 0
-18 -19 0
1 21 22 -38 0
-23 -24 32 33 0
-9 17 32 33 0
-21 -22 0
-23 -24 0
5 6 21 22 0
-25 -26 0
-27 -28 0
20 27 28 -41 0
-4 20 40 41 0
-30 -31 0
-32 -33 0
-34 -35 0
-36 -37 0
21 22 34 35 0
21 22 36 37 0
17 27 28 -32 0
17 -27 32 33 0
-38 -39 0
3 4 30 31 0
-40 -41 0
23 24 -32 -33 0
3 4 27 28 0
2 -23 36 37 0
-1 -22 0
13 14 34 35 0
2 30 31 -36 0
11 12 20 -41 0
25 26 34 35 0
2 -23 30 31 0
-1 -39 0
-1 5 6 29 0
-2 -24 0
2 23 24 -30 0
-3 -4 9 10 0
-2 -31 0
23 24 38 39 0
3 4 -9 -10 0
-2 -37 0
1 21 22 -29 0
-6 23 24 29 0
9 10 40 41 0
-3 -20 0
9 10 36 37 0
-3 -25 0
-4 -26 0
1 -29 38 39 0
-3 -27 0
-4 -28 0
18 19 34 35 0
-3 -30 0
-4 -31 0
15 16 38 39 0
-5 -15 0
-6 -16 0
18 19 30 31 0
-5 -18 0
-6 -19 0
13 14 23 24 0
-5 -21 0
-6 -22 0
7 8 25 26 0
-5 -27 0
-6 -28 0
-5 -29 0
11 12 20 -28 0
7 8 40 41 0
-5 -38 0
-6 -39 0
-7 -15 0
-8 -16 0
20 -28 40 41 0
5 6 18 19 0
-7 -25 0
-8 -26 0
-7 -27 0
-8 -28 0
7 8 27 28 0
-7 -38 0
-8 -39 0
3 4 20 -41 0
-7 -40 0
-8 -41 0
-10 -17 0
1 -24 29 -38 0
-12 20 40 41 0
-1 23 24 29 0
-9 -32 0
-10 -33 0
11 12 40 41 0
-9 -36 0
-10 -37 0
25 26 32 33 0
-9 -40 0
-10 -41 0
-11 -15 0
-12 -16 0
5 6 38 39 0
-11 -20 0
3 4 -12 20 0
-11 -21 0
-12 -22 0
18 19 27 28 0
-11 -40 0
-12 -41 0
11 12 15 16 0
-13 -23 0
-14 -24 0
-9 17 27 28 0
-13 -30 0
-14 -31 0
-13 -32 0
-14 -33 0
-12 20 27 28 0
-13 -34 0
-14 -35 0
25 26 36 37 0
-7 -8 38 39 0
3 4 25 26 0
5 6 -24 29 0
7 8 -38 -39 0
7 8 38 39 0
-15 -38 0
-16 -39 0
-17 -28 0
-17 -33 0
13 14 30 31 0
-18 -27 0
-19 -28 0
1 -6 29 -38 0
-18 -30 0
-19 -31 0
9 10 32 33 0
-18 -34 0
-19 -35 0
7 8 15 16 0
9 10 17 -27 0
1 -6 -21 29 0
5 6 27 28 0
1 -21 38 39 0
-20 -27 0
-4 20 27 28 0
3 4 20 -28 0
1 -21 -24 29 0
13 14 32 33 0
-20 -40 0
-21 -34 0
-22 -35 0
2 23 24 -36 0
-21 -36 0
-22 -37 0
11 12 21 22 0
-23 -29 0
-4 11 12 20 0
-23 -38 0
-24 -39 0
5 6 15 16 0
-25 -32 0
-26 -33 0
9 10 17 -32 0
-25 -34 0
-26 -35 0
-25 -36 0
-26 -37 0
